
Gurobi 9.1.0 (win64) logging started Sat Jan  2 09:22:52 2021

Changed value of parameter LogFile to logs/iteration11
   Prev:   Default: 
Gurobi Optimizer version 9.1.0 build v9.1.0rc0 (win64)
Thread count: 4 physical cores, 8 logical processors, using up to 8 threads
Optimize a model with 136 rows, 636 columns and 2384 nonzeros
Model fingerprint: 0xd762ac85
Coefficient statistics:
  Matrix range     [1e+00, 1e+00]
  Objective range  [9e+02, 3e+03]
  Bounds range     [0e+00, 0e+00]
  RHS range        [1e+00, 1e+00]
Presolve removed 12 rows and 38 columns
Presolve time: 0.00s
Presolved: 124 rows, 598 columns, 2346 nonzeros

Iteration    Objective       Primal Inf.    Dual Inf.      Time
       0    1.8019667e+04   1.240000e+02   0.000000e+00      0s
     232    8.8090250e+04   0.000000e+00   0.000000e+00      0s

Solved in 232 iterations and 0.00 seconds
Optimal objective  8.809025000e+04

Solutionx[24] 1.000000 
x[27] 1.000000 
x[64] 1.000000 
x[66] 1.000000 
x[70] 1.000000 
x[72] 1.000000 
x[76] 1.000000 
x[77] 1.000000 
x[99] 1.000000 
x[118] 1.000000 
x[124] 1.000000 
x[129] 1.000000 
x[130] 1.000000 
x[131] 1.000000 
x[132] 1.000000 
x[134] 1.000000 
x[264] 0.500000 
x[552] 0.500000 
x[728] 1.000000 
x[846] 0.250000 
x[1926] 0.750000 
x[2456] 0.250000 
x[3081] 0.250000 
x[3092] 0.500000 
x[4760] 0.500000 
x[19863] 1.000000 
x[31906] 0.500000 
x[9961] 1.000000 
x[963] 1.000000 
x[3365] 1.000000 
x[6924] 1.000000 
x[30408] 1.000000 
x[10403] 1.000000 
x[3808] 1.000000 
x[10912] 1.000000 
x[12011] 1.000000 
x[16418] 0.500000 
x[28538] 0.500000 
x[30770] 1.000000 
x[6136] 1.000000 
x[11331] 0.250000 
x[23910] 0.250000 
x[29724] 0.500000 
x[5162] 0.500000 
x[23660] 0.250000 
x[1255] 0.250000 
x[13863] 1.000000 
x[9050] 0.500000 
x[27762] 0.500000 
x[10384] 1.000000 
x[27283] 1.000000 
x[23606] 1.000000 
x[7217] 1.000000 
x[20407] 1.000000 
x[7629] 0.500000 
x[10477] 0.500000 
x[15030] 0.500000 
x[19311] 0.500000 
x[13739] 1.000000 
x[26625] 1.000000 
